results/res_prop_muc/res_Cimatti_mathsat_cores/QF_LIA/SIMPLEBITADDER_COMPOSE_2.msat.smt.smt2.res
unsat
( c1
  c10
  c11
  c12
  c13
  c14
  c15
  c16
  c17
  c18
  c19
  c2
  c20
  c21
  c22
  c23
  c24
  c25
  c26
  c27
  c28
  c29
  c3
  c30
  c31
  c32
  c33
  c34
  c35
  c36
  c37
  c38
  c39
  c4
  c40
  c42
  c46
  c47
  c5
  c50
  c51
  c52
  c53
  c54
  c58
  c59
  c6
  c60
  c61
  c69
  c7
  c70
  c71
  c76
  c77
  c78
  c79
  c8
  c80
  c82
  c83
  c9 )
